(set-option :incremental false)
(set-logic ALL)
(declare-const BAV1 Bool)
(declare-const GEN4 Int)
(declare-const GEN3 Int)
(declare-const GEN2 Int)
(declare-const GEN1 Int)
(declare-fun v0 () (_ BitVec 4))
(assert (= BAV1 (= (_ bv0 1) ((_ extract 0 0) (bvadd (_ bv1 4) (bvnot v0))))))
(check-sat-assuming ((= (_ bv0 1) ((_ extract 0 0) (bvadd (_ bv1 4) (bvnot v0))))))
(get-model)